Mack/Bortfeldt(2008)
Bin-Packing-Problem
BP-RG/SBSBPP/SSSCSP
Testcase-ID	7
Problem-ID	58
no_item_types	15
no_items	1554
CONTAINER_DATA (l,w,h)	587	233	1
ITEMS_DATA:
Type	x	y	z	no_items
1	45	42	1	95
2	49	37	1	93
3	39	37	1	90
4	57	22	1	104
5	40	27	1	99
6	37	28	1	104
7	33	26	1	107
8	49	16	1	109
9	33	19	1	111
10	24	23	1	100
11	42	13	1	120
12	28	15	1	103
13	27	15	1	96
14	21	19	1	114
15	33	10	1	109
